proyfinal/src/viki/013/experimentInOfficeAgust.take6.output/94fdad2e-d979-48a2-bc4d-853a1d5e965b.als.dat
{'cnf.clauses': '118081',
 'cnf.totvars': '69608',
 'conflict literals': '44',
 'conflicts': '17',
 'decisions': '5498',
 'memused.mb': '15.42',
 'outcome': 'UNSAT',
 'propagations': '26517',
 'restarts': '1',
 'solver.msecs': 32,
 'task.msecs': 79}
