proyfinal/src/viki/013/experimentInOfficeAgust.take6.output/94fdad2e-d979-48a2-bc4d-853a1d5e965b.als.out
Reading from standard input... Use '--help' for help.
============================[ Problem Statistics ]=============================
|                                                                             |
|  Number of variables:         69608                                         |
|  Number of clauses:          118081                                         |
|  Parse time:                   0.02 s                                       |
|                                                                             |
============================[ Search Statistics ]==============================
| Conflicts |          ORIGINAL         |          LEARNT          | Progress |
|           |    Vars  Clauses Literals |    Limit  Clauses Lit/Cl |          |
===============================================================================
===============================================================================
restarts              : 1
conflicts             : 17             (530 /sec)
decisions             : 5498           (0.00 % random) (171518 /sec)
propagations          : 26517          (827234 /sec)
conflict literals     : 44             (0.00 % deleted)
Memory used           : 15.42 MB
CPU time              : 0.032055 s

UNSATISFIABLE
